(declare-const in71 Int)
(declare-const in62 Int)
(declare-const in84 Int)
(declare-const in61 Int)
(declare-const in83 Int)
(declare-const in42 Int)
(declare-const in64 Int)
(declare-const in86 Int)
(declare-const in41 Int)
(declare-const in63 Int)
(declare-const in85 Int)
(declare-const in21 Int)
(declare-const in43 Int)
(declare-const in65 Int)
(declare-const in87 Int)
(declare-const in02 Int)
(declare-const in01 Int)
(declare-const in04 Int)
(declare-const in03 Int)
(declare-const in06 Int)
(declare-const in05 Int)
(declare-const in08 Int)
(declare-const in07 Int)
(declare-const in82 Int)
(declare-const in81 Int)
(declare-const in51 Int)
(declare-const in73 Int)
(declare-const in72 Int)
(declare-const in31 Int)
(declare-const in53 Int)
(declare-const in75 Int)
(declare-const in52 Int)
(declare-const in74 Int)
(declare-const in32 Int)
(declare-const in54 Int)
(declare-const in76 Int)

(assert (and (and (and (and (and (and (and (and (and (and (and (and (and (and (and (and (and (and (and (and (and (and (and (and (and (and (and (and (and (and (and (and (and (and (and (and (and (and (and (and (and (and (and (and (and (and (and (and (and (and (and (and (and (and (and  ( <  in02 in01)  ( <  in03 in02))  ( <  in04 in03))  ( <  in05 in04))  ( <  in06 in05))  ( <  in07 in06))  ( <  in08 in07))  ( <  ( +  in81 in08) in01))  ( <  ( +  in82 in08) in02))  ( <  ( +  in83 in08) in03))  ( <  ( +  in84 in08) in04))  ( <  ( +  in85 in08) in05))  ( <  ( +  in86 in08) in06))  ( <  ( +  in87 in08) in07))  ( <  ( +  in82 in08) ( +  in81 in08)))  ( <  ( +  in83 in08) ( +  in82 in08)))  ( <  ( +  in84 in08) ( +  in83 in08)))  ( <  ( +  in85 in08) ( +  in84 in08)))  ( <  ( +  in86 in08) ( +  in85 in08)))  ( <  ( +  in87 in08) ( +  in86 in08)))  ( <  ( +  in71 ( +  in87 in08)) ( +  in81 in08)))  ( <  ( +  in72 ( +  in87 in08)) ( +  in82 in08)))  ( <  ( +  in73 ( +  in87 in08)) ( +  in83 in08)))  ( <  ( +  in74 ( +  in87 in08)) ( +  in84 in08)))  ( <  ( +  in75 ( +  in87 in08)) ( +  in85 in08)))  ( <  ( +  in76 ( +  in87 in08)) ( +  in86 in08)))  ( <  ( +  in72 ( +  in87 in08)) ( +  in71 ( +  in87 in08))))  ( <  ( +  in73 ( +  in87 in08)) ( +  in72 ( +  in87 in08))))  ( <  ( +  in74 ( +  in87 in08)) ( +  in73 ( +  in87 in08))))  ( <  ( +  in75 ( +  in87 in08)) ( +  in74 ( +  in87 in08))))  ( <  ( +  in76 ( +  in87 in08)) ( +  in75 ( +  in87 in08))))  ( <  ( +  in61 ( +  in76 ( +  in87 in08))) ( +  in71 ( +  in87 in08))))  ( <  ( +  in62 ( +  in76 ( +  in87 in08))) ( +  in72 ( +  in87 in08))))  ( <  ( +  in63 ( +  in76 ( +  in87 in08))) ( +  in73 ( +  in87 in08))))  ( <  ( +  in64 ( +  in76 ( +  in87 in08))) ( +  in74 ( +  in87 in08))))  ( <  ( +  in65 ( +  in76 ( +  in87 in08))) ( +  in75 ( +  in87 in08))))  ( <  ( +  in62 ( +  in76 ( +  in87 in08))) ( +  in61 ( +  in76 ( +  in87 in08)))))  ( <  ( +  in63 ( +  in76 ( +  in87 in08))) ( +  in62 ( +  in76 ( +  in87 in08)))))  ( <  ( +  in64 ( +  in76 ( +  in87 in08))) ( +  in63 ( +  in76 ( +  in87 in08)))))  ( <  ( +  in65 ( +  in76 ( +  in87 in08))) ( +  in64 ( +  in76 ( +  in87 in08)))))  ( <  ( +  in51 ( +  in65 ( +  in76 ( +  in87 in08)))) ( +  in61 ( +  in76 ( +  in87 in08)))))  ( <  ( +  in52 ( +  in65 ( +  in76 ( +  in87 in08)))) ( +  in62 ( +  in76 ( +  in87 in08)))))  ( <  ( +  in53 ( +  in65 ( +  in76 ( +  in87 in08)))) ( +  in63 ( +  in76 ( +  in87 in08)))))  ( <  ( +  in54 ( +  in65 ( +  in76 ( +  in87 in08)))) ( +  in64 ( +  in76 ( +  in87 in08)))))  ( <  ( +  in52 ( +  in65 ( +  in76 ( +  in87 in08)))) ( +  in51 ( +  in65 ( +  in76 ( +  in87 in08))))))  ( <  ( +  in53 ( +  in65 ( +  in76 ( +  in87 in08)))) ( +  in52 ( +  in65 ( +  in76 ( +  in87 in08))))))  ( <  ( +  in54 ( +  in65 ( +  in76 ( +  in87 in08)))) ( +  in53 ( +  in65 ( +  in76 ( +  in87 in08))))))  ( <  ( +  in41 ( +  in54 ( +  in65 ( +  in76 ( +  in87 in08))))) ( +  in51 ( +  in65 ( +  in76 ( +  in87 in08))))))  ( <  ( +  in42 ( +  in54 ( +  in65 ( +  in76 ( +  in87 in08))))) ( +  in52 ( +  in65 ( +  in76 ( +  in87 in08))))))  ( <  ( +  in43 ( +  in54 ( +  in65 ( +  in76 ( +  in87 in08))))) ( +  in53 ( +  in65 ( +  in76 ( +  in87 in08))))))  ( <  ( +  in42 ( +  in54 ( +  in65 ( +  in76 ( +  in87 in08))))) ( +  in41 ( +  in54 ( +  in65 ( +  in76 ( +  in87 in08)))))))  ( <  ( +  in43 ( +  in54 ( +  in65 ( +  in76 ( +  in87 in08))))) ( +  in42 ( +  in54 ( +  in65 ( +  in76 ( +  in87 in08)))))))  ( <  ( +  in31 ( +  in43 ( +  in54 ( +  in65 ( +  in76 ( +  in87 in08)))))) ( +  in41 ( +  in54 ( +  in65 ( +  in76 ( +  in87 in08)))))))  ( <  ( +  in32 ( +  in43 ( +  in54 ( +  in65 ( +  in76 ( +  in87 in08)))))) ( +  in42 ( +  in54 ( +  in65 ( +  in76 ( +  in87 in08)))))))  ( <  ( +  in32 ( +  in43 ( +  in54 ( +  in65 ( +  in76 ( +  in87 in08)))))) ( +  in31 ( +  in43 ( +  in54 ( +  in65 ( +  in76 ( +  in87 in08))))))))  ( <  ( +  in21 ( +  in32 ( +  in43 ( +  in54 ( +  in65 ( +  in76 ( +  in87 in08))))))) ( +  in31 ( +  in43 ( +  in54 ( +  in65 ( +  in76 ( +  in87 in08)))))))))

(check-sat)
(get-model)